20	5
0	7	2	4	5	17	1	6	3
1	1	21
2	1	12
3	1	10
4	1	14
5	1	19
6	2	13	16
7	1	18
8	1	11
9	1	13
10	0
11	1	19
12	1	15
13	1	20
14	0
15	1	20
16	0
17	1	21
18	1	21
19	1	21
20	1	21
21	0
0	0	0	0	0	0	0
1	8	2	1	4	5	4
2	5	4	1	2	3	4
3	3	2	1	2	5	2
4	10	1	4	1	4	2
5	6	5	5	2	1	2
6	2	4	1	5	2	4
7	6	1	1	1	2	1
8	5	1	5	4	3	5
9	4	2	2	4	3	5
10	4	4	3	1	5	2
11	3	5	2	2	3	4
12	2	3	4	4	2	3
13	2	2	4	3	4	4
14	2	1	1	5	1	5
15	3	5	5	1	3	4
16	8	2	2	3	1	5
17	2	2	2	2	1	2
18	9	5	2	3	1	5
19	9	1	5	2	1	3
20	4	1	3	5	1	4
21	0	0	0	0	0	0
14	11	14	15	15
